33
XYZ file generated by Avogadro.
C     -2.1426130066    2.3500011719   -0.0148144487
F      2.7475456338    0.8218636876   -0.9138832866
F      4.2842332962    3.4156314453    0.9396374686
H     -3.2377891445    3.9139183918   -1.0330348985
H     -3.2518426322    4.0548932606    0.7210091398
C     -0.7861465019    3.0440305622   -0.0727293485
F      5.2389944766    0.5209772939   -0.8675634038
C     -4.6335562084    2.6130307005   -0.0572888432
F     -2.2662026930    1.6401170825    1.1384836092
F     -2.2599960818    1.4504164211   -1.0281732312
C      0.3543979376    2.0474155200    0.0266795942
F      2.7586287642    1.0871126272    1.2434967889
O     -5.6694723023    3.5837953908   -0.1382731132
F     -0.6944710163    3.7586672622   -1.2305033174
F     -0.7037176766    3.9608683693    0.9334484783
C      1.6973649510    2.7523150202   -0.0494555992
C     -3.2968770387    3.3340518949   -0.1040271102
C      5.3253899542    1.4800669635    0.0975867931
F      0.2641947041    1.3483113837    1.1912027719
F      0.2610606834    1.1264755535   -0.9714196835
C      2.8443361679    1.7621750775    0.0649774248
C      6.6495441931    2.2100350994   -0.0129553657
F      4.2781315422    3.1315454932   -1.2137629369
F      1.7957842482    3.4394873046   -1.2202822122
F      1.7933834807    3.6830650219    0.9390517581
C      4.1868746533    2.4660553193   -0.0302054383
F      5.2536339605    0.8189988510    1.2879376787
H     -4.7417545471    1.9222164998   -0.8995736752
H     -4.7531711726    2.0573822584    0.8778929652
H     -6.5155555578    3.1038235387   -0.1077878575
F      6.8059678951    3.1432289834    0.9543676745
F      6.7931625497    2.8391694464   -1.2023577707
F      7.6940522543    1.3515177021    0.1018806960
