LAMMPS data file generated with LigParGen 2.1 - Jorgensen Lab

      33 atoms
      32 bonds
      61 angles
      84 dihedrals
      33 atom types
      32 bond types
      61 angle types
      84 dihedral types

   -5.378000    44.622000 xlo xhi
   -2.571000    47.429000 ylo yhi
   -2.324000    47.676000 zlo zhi

Masses

       1     12.011
       2     12.011
       3     12.011
       4     18.998
       5     18.998
       6     12.011
       7     18.998
       8     12.011
       9     18.998
      10     12.011
      11     18.998
      12     18.998
      13     18.998
      14     18.998
      15     18.998
      16     18.998
      17     18.998
      18     18.998
      19     18.998
      20     12.011
      21     18.998
      22     18.998
      23     12.011
      24     18.998
      25     18.998
      26     12.011
      27     12.011
      28     15.999
      29      1.008
      30      1.008
      31      1.008
      32      1.008
      33      1.008

Pair Coeffs

       1      0.066  3.5000000
       2      0.066  3.5000000
       3      0.066  3.5000000
       4      0.060  2.9000000
       5      0.060  2.9000000
       6      0.066  3.5000000
       7      0.060  2.9000000
       8      0.066  3.5000000
       9      0.060  2.9000000
      10      0.066  3.5000000
      11      0.060  2.9000000
      12      0.060  2.9000000
      13      0.060  2.9000000
      14      0.060  2.9000000
      15      0.060  2.9000000
      16      0.060  2.9000000
      17      0.060  2.9000000
      18      0.060  2.9000000
      19      0.060  2.9000000
      20      0.066  3.5000000
      21      0.060  2.9000000
      22      0.060  2.9000000
      23      0.066  3.5000000
      24      0.060  2.9000000
      25      0.060  2.9000000
      26      0.066  3.5000000
      27      0.066  3.5000000
      28      0.170  3.1200000
      29      0.030  2.5000000
      30      0.030  2.5000000
      31      0.030  2.5000000
      32      0.030  2.5000000
      33      0.000  0.0000000

Bond Coeffs

       1   268.0000     1.5290
       2   268.0000     1.5290
       3   367.0000     1.3320
       4   367.0000     1.3320
       5   268.0000     1.5290
       6   367.0000     1.3320
       7   268.0000     1.5290
       8   367.0000     1.3320
       9   268.0000     1.5290
      10   367.0000     1.3320
      11   367.0000     1.3320
      12   367.0000     1.3320
      13   367.0000     1.3320
      14   367.0000     1.3320
      15   367.0000     1.3320
      16   367.0000     1.3320
      17   367.0000     1.3320
      18   367.0000     1.3320
      19   268.0000     1.5290
      20   367.0000     1.3320
      21   367.0000     1.3320
      22   268.0000     1.5290
      23   367.0000     1.3320
      24   367.0000     1.3320
      25   268.0000     1.5290
      26   268.0000     1.5290
      27   320.0000     1.4100
      28   340.0000     1.0900
      29   340.0000     1.0900
      30   340.0000     1.0900
      31   340.0000     1.0900
      32   553.0000     0.9450

Angle Coeffs

       1     58.350    112.700
       2     50.000    109.500
       3     50.000    109.500
       4     58.350    112.700
       5     50.000    109.500
       6     58.350    112.700
       7     50.000    109.500
       8     58.350    112.700
       9     50.000    109.500
      10     50.000    109.500
      11     50.000    109.500
      12     50.000    109.500
      13     50.000    109.500
      14     50.000    109.500
      15     50.000    109.500
      16     50.000    109.500
      17     50.000    109.500
      18     58.350    112.700
      19     50.000    109.500
      20     50.000    109.500
      21     58.350    112.700
      22     50.000    109.500
      23     50.000    109.500
      24     58.350    112.700
      25     58.350    112.700
      26     50.000    109.500
      27     37.500    110.700
      28     37.500    110.700
      29     37.500    110.700
      30     37.500    110.700
      31     55.000    108.500
      32     50.000    109.500
      33     50.000    109.500
      34     77.000    109.100
      35     50.000    109.500
      36     50.000    109.500
      37     50.000    109.500
      38     77.000    109.100
      39     50.000    109.500
      40     50.000    109.500
      41     77.000    109.100
      42     50.000    109.500
      43     77.000    109.100
      44     77.000    109.100
      45     77.000    109.100
      46     77.000    109.100
      47     77.000    109.100
      48     50.000    109.500
      49     50.000    109.500
      50     77.000    109.100
      51     50.000    109.500
      52     50.000    109.500
      53     77.000    109.100
      54     50.000    109.500
      55     50.000    109.500
      56     37.500    110.700
      57     37.500    110.700
      58     35.000    109.500
      59     35.000    109.500
      60     33.000    107.800
      61     33.000    107.800

Dihedral Coeffs

       1      0.300      0.000      0.400      0.000
       2      0.300      0.000      0.400      0.000
       3      6.622      0.948     -1.388     -2.118
       4      0.300      0.000      0.400      0.000
       5      6.622      0.948     -1.388     -2.118
       6      0.300      0.000      0.400      0.000
       7      6.622      0.948     -1.388     -2.118
       8      0.300      0.000      0.400      0.000
       9      0.300      0.000      0.400      0.000
      10      0.300      0.000      0.400      0.000
      11      0.300      0.000      0.400      0.000
      12      0.300      0.000      0.400      0.000
      13     -2.500      0.000      0.250      0.000
      14     -2.500      0.000      0.250      0.000
      15      0.300      0.000      0.400      0.000
      16      0.300      0.000      0.400      0.000
      17      6.622      0.948     -1.388     -2.118
      18      0.300      0.000      0.400      0.000
      19      0.300      0.000      0.400      0.000
      20      6.622      0.948     -1.388     -2.118
      21      0.300      0.000      0.400      0.000
      22      0.300      0.000      0.400      0.000
      23      6.622      0.948     -1.388     -2.118
      24      0.850     -0.200      0.200      0.000
      25      1.711     -0.500      0.663      0.000
      26      0.000      0.000      0.300      0.000
      27      0.000      0.000      0.300      0.000
      28      0.000      0.000      0.300      0.000
      29      0.000      0.000      0.300      0.000
      30     -0.356     -0.174      0.492      0.000
      31     -2.500      0.000      0.250      0.000
      32      0.300      0.000      0.400      0.000
      33     -2.500      0.000      0.250      0.000
      34     -2.500      0.000      0.250      0.000
      35     -2.500      0.000      0.250      0.000
      36     -2.500      0.000      0.250      0.000
      37      0.300      0.000      0.400      0.000
      38     -2.500      0.000      0.250      0.000
      39      0.300      0.000      0.400      0.000
      40      0.300      0.000      0.400      0.000
      41     -2.500      0.000      0.250      0.000
      42      0.300      0.000      0.400      0.000
      43     -2.500      0.000      0.250      0.000
      44     -2.500      0.000      0.250      0.000
      45     -2.500      0.000      0.250      0.000
      46     -2.500      0.000      0.250      0.000
      47     -2.500      0.000      0.250      0.000
      48      0.300      0.000      0.400      0.000
      49     -2.500      0.000      0.250      0.000
      50     -2.500      0.000      0.250      0.000
      51     -2.500      0.000      0.250      0.000
      52     -2.500      0.000      0.250      0.000
      53     -2.500      0.000      0.250      0.000
      54     -2.500      0.000      0.250      0.000
      55      0.300      0.000      0.400      0.000
      56     -2.500      0.000      0.250      0.000
      57     -2.500      0.000      0.250      0.000
      58      0.300      0.000      0.400      0.000
      59     -2.500      0.000      0.250      0.000
      60     -2.500      0.000      0.250      0.000
      61      0.300      0.000      0.400      0.000
      62     -2.500      0.000      0.250      0.000
      63     -2.500      0.000      0.250      0.000
      64      0.300      0.000      0.400      0.000
      65     -2.500      0.000      0.250      0.000
      66     -2.500      0.000      0.250      0.000
      67      0.300      0.000      0.400      0.000
      68     -2.500      0.000      0.250      0.000
      69     -2.500      0.000      0.250      0.000
      70      0.300      0.000      0.400      0.000
      71      0.000      0.000      0.000      0.000
      72      0.000      0.000      0.360      0.000
      73      0.000      0.000      0.360      0.000
      74      0.000      0.000      0.000      0.000
      75      0.000      0.000      0.360      0.000
      76      0.000      0.000      0.360      0.000
      77      0.000      0.000      0.468      0.000
      78      0.000      0.000      0.468      0.000
      79      0.000      0.000      0.300      0.000
      80      0.000      0.000      0.300      0.000
      81      0.000      0.000      0.300      0.000
      82      0.000      0.000      0.300      0.000
      83      0.000      0.000      0.352      0.000
      84      0.000      0.000      0.352      0.000

Atoms

     1      1      1   0.151804  0.40300 -0.61100 -0.34800
     2      1      2   0.165116 -0.76300 -0.95100  0.53800
     3      1      3   0.147508  1.52700 -0.19200  0.64000
     4      1      4  -0.077243  1.05400  0.87900  1.33800
     5      1      5  -0.077243  1.70200 -1.25900  1.47500
     6      1      6   0.175325  2.74300  0.13800 -0.18500
     7      1      7  -0.082058  2.40500  1.16900 -1.03000
     8      1      8   0.156426  3.89400  0.46500  0.70700
     9      1      9  -0.090390  3.65700  1.54200  1.53000
    10      1     10   0.369941  5.16500  0.75500 -0.06200
    11      1     11  -0.117565  5.52700 -0.32900 -0.81200
    12      1     12  -0.117565  5.00600  1.83500 -0.92000
    13      1     13  -0.117565  6.19500  1.07000  0.79700
    14      1     14  -0.090390  4.14500 -0.62000  1.52000
    15      1     15  -0.082058  3.09200 -0.93700 -0.97800
    16      1     16  -0.072661  0.77800 -1.70600 -1.06100
    17      1     17  -0.072661  0.22300  0.52100 -1.11300
    18      1     18  -0.090484 -0.32100 -1.96200  1.41800
    19      1     19  -0.090484 -1.06000  0.11100  1.40100
    20      1     20   0.167769 -1.93300 -1.40500 -0.23400
    21      1     21  -0.112145 -2.85500 -1.95900  0.67000
    22      1     22  -0.112145 -1.56800 -2.57100 -0.99300
    23      1     23   0.238855 -2.54700 -0.49100 -1.22100
    24      1     24  -0.132332 -3.67000 -1.14000 -1.82700
    25      1     25  -0.132332 -1.73400 -0.25100 -2.32400
    26      1     26  -0.269220 -3.01000  0.79500 -0.62800
    27      1     27   0.107824 -4.05500  0.55400  0.42400
    28      1     28  -0.693358 -4.42500  1.85300  0.88300
    29      1     29   0.160641 -3.40600  1.46500 -1.43500
    30      1     30   0.160641 -2.12400  1.32100 -0.17900
    31      1     31   0.102885 -4.94400  0.10000 -0.07000
    32      1     32   0.102885 -3.72100 -0.05000  1.27700
    33      1     33   0.422279 -5.37800  1.86300  1.13100

Bonds

     1      1      2      1
     2      2      3      1
     3      3      4      3
     4      4      5      3
     5      5      6      3
     6      6      7      6
     7      7      8      6
     8      8      9      8
     9      9     10      8
    10     10     11     10
    11     11     12     10
    12     12     13     10
    13     13     14      8
    14     14     15      6
    15     15     16      1
    16     16     17      1
    17     17     18      2
    18     18     19      2
    19     19     20      2
    20     20     21     20
    21     21     22     20
    22     22     23     20
    23     23     24     23
    24     24     25     23
    25     25     26     23
    26     26     27     26
    27     27     28     27
    28     28     29     26
    29     29     30     26
    30     30     31     27
    31     31     32     27
    32     32     33     28

Angles

     1      1      3      1      2
     2      2      4      3      1
     3      3      5      3      1
     4      4      6      3      1
     5      5      7      6      3
     6      6      8      6      3
     7      7      9      8      6
     8      8     10      8      6
     9      9     11     10      8
    10     10     12     10      8
    11     11     13     10      8
    12     12     14      8      6
    13     13     15      6      3
    14     14     16      1      3
    15     15     17      1      3
    16     16     18      2      1
    17     17     19      2      1
    18     18     20      2      1
    19     19     21     20      2
    20     20     22     20      2
    21     21     23     20      2
    22     22     24     23     20
    23     23     25     23     20
    24     24     26     23     20
    25     25     27     26     23
    26     26     28     27     26
    27     27     29     26     23
    28     28     30     26     23
    29     29     31     27     26
    30     30     32     27     26
    31     31     33     28     27
    32     32     16      1      2
    33     33     17      1      2
    34     34      5      3      4
    35     35      6      3      4
    36     36      6      3      5
    37     37      8      6      7
    38     38     15      6      7
    39     39     15      6      8
    40     40     10      8      9
    41     41     14      8      9
    42     42     14      8     10
    43     43     12     10     11
    44     44     13     10     11
    45     45     13     10     12
    46     46     17      1     16
    47     47     19      2     18
    48     48     20      2     18
    49     49     20      2     19
    50     50     22     20     21
    51     51     23     20     21
    52     52     23     20     22
    53     53     25     23     24
    54     54     26     23     24
    55     55     26     23     25
    56     56     29     26     27
    57     57     30     26     27
    58     58     31     27     28
    59     59     32     27     28
    60     60     30     26     29
    61     61     32     27     31

Dihedrals

     1      1      4      3      1      2
     2      2      5      3      1      2
     3      3      6      3      1      2
     4      4      7      6      3      1
     5      5      8      6      3      1
     6      6      9      8      6      3
     7      7     10      8      6      3
     8      8     11     10      8      6
     9      9     12     10      8      6
    10     10     13     10      8      6
    11     11     14      8      6      3
    12     12     15      6      3      1
    13     13     16      1      3      4
    14     14     17      1      3      4
    15     15     18      2      1      3
    16     16     19      2      1      3
    17     17     20      2      1      3
    18     18     21     20      2      1
    19     19     22     20      2      1
    20     20     23     20      2      1
    21     21     24     23     20      2
    22     22     25     23     20      2
    23     23     26     23     20      2
    24     24     27     26     23     20
    25     25     28     27     26     23
    26     26     29     26     23     20
    27     27     30     26     23     20
    28     28     31     27     26     23
    29     29     32     27     26     23
    30     30     33     28     27     26
    31     31      7      6      3      4
    32     32      8      6      3      4
    33     33     15      6      3      4
    34     34     16      1      3      5
    35     35     17      1      3      5
    36     36      7      6      3      5
    37     37      8      6      3      5
    38     38     15      6      3      5
    39     39     16      1      3      6
    40     40     17      1      3      6
    41     41      9      8      6      7
    42     42     10      8      6      7
    43     43     14      8      6      7
    44     44     15      6      8      9
    45     45     11     10      8      9
    46     46     12     10      8      9
    47     47     13     10      8      9
    48     48     15      6      8     10
    49     49     14      8     10     11
    50     50     14      8     10     12
    51     51     14      8     10     13
    52     52     15      6      8     14
    53     53     18      2      1     16
    54     54     19      2      1     16
    55     55     20      2      1     16
    56     56     18      2      1     17
    57     57     19      2      1     17
    58     58     20      2      1     17
    59     59     21     20      2     18
    60     60     22     20      2     18
    61     61     23     20      2     18
    62     62     21     20      2     19
    63     63     22     20      2     19
    64     64     23     20      2     19
    65     65     24     23     20     21
    66     66     25     23     20     21
    67     67     26     23     20     21
    68     68     24     23     20     22
    69     69     25     23     20     22
    70     70     26     23     20     22
    71     71     27     26     23     24
    72     72     29     26     23     24
    73     73     30     26     23     24
    74     74     27     26     23     25
    75     75     29     26     23     25
    76     76     30     26     23     25
    77     77     29     26     27     28
    78     78     30     26     27     28
    79     79     31     27     26     29
    80     80     32     27     26     29
    81     81     31     27     26     30
    82     82     32     27     26     30
    83     83     33     28     27     31
    84     84     33     28     27     32


